\ Model 2g2a
\ LP format - for model browsing. Use MPS format to capture full model detail.
Minimize
  c(44,29)_rl + c(44,29)_ru + c(34,50)_rl + c(34,50)_ru + c(23,37)_rl
   + c(23,37)_ru + c(32,26)_rl + c(32,26)_ru + c(32,15)_rl + c(32,15)_ru
   + c(27,45)_rl + c(27,45)_ru + c(51,4)_rl + c(51,4)_ru + c(32,2)_rl
   + c(32,2)_ru + c(10,53)_rl + c(10,53)_ru + c(54,6)_rl + c(54,6)_ru
   + c(11,4)_rl + c(11,4)_ru + c(6,4)_rl + c(6,4)_ru + c(55,4)_rl
   + c(55,4)_ru + c(22,4)_rl + c(22,4)_ru + c(57,4)_rl + c(57,4)_ru
   + c(32,27)_rl + c(32,27)_ru + c(32,40)_rl + c(32,40)_ru + c(48,12)_rl
   + c(48,12)_ru + c(28,8)_rl + c(28,8)_ru + c(32,52)_rl + c(32,52)_ru
   + c(32,54)_rl + c(32,54)_ru + c(35,40)_rl + c(35,40)_ru + c(32,24)_rl
   + c(32,24)_ru + c(53,4)_rl + c(53,4)_ru + c(43,34)_rl + c(43,34)_ru
   + c(48,36)_rl + c(48,36)_ru + c(32,36)_rl + c(32,36)_ru + c(48,30)_rl
   + c(48,30)_ru + c(56,4)_rl + c(56,4)_ru + c(5,47)_rl + c(5,47)_ru
   + c(32,28)_rl + c(32,28)_ru + c(32,10)_rl + c(32,10)_ru + c(32,23)_rl
   + c(32,23)_ru + c(4,31)_rl + c(4,31)_ru + c(48,0)_rl + c(48,0)_ru
   + c(32,30)_rl + c(32,30)_ru + c(48,28)_rl + c(48,28)_ru + c(48,42)_rl
   + c(48,42)_ru + c(26,38)_rl + c(26,38)_ru + c(25,50)_rl + c(25,50)_ru
   + c(47,4)_rl + c(47,4)_ru + c(3,50)_rl + c(3,50)_ru + c(48,7)_rl
   + c(48,7)_ru + c(27,33)_rl + c(27,33)_ru + c(32,39)_rl + c(32,39)_ru
   + c(48,54)_rl + c(48,54)_ru + c(19,20)_rl + c(19,20)_ru + c(16,9)_rl
   + c(16,9)_ru + c(41,4)_rl + c(41,4)_ru + c(32,5)_rl + c(32,5)_ru
   + c(8,4)_rl + c(8,4)_ru + c(18,4)_rl + c(18,4)_ru + c(21,4)_rl
   + c(21,4)_ru + c(14,4)_rl + c(14,4)_ru + c(32,17)_rl + c(32,17)_ru
   + c(48,2)_rl + c(48,2)_ru + c(48,5)_rl + c(48,5)_ru + c(49,25)_rl
   + c(49,25)_ru + c(48,24)_rl + c(48,24)_ru + c(13,50)_rl + c(13,50)_ru
   + c(32,23)_rl + c(32,23)_ru + c(48,39)_rl + c(48,39)_ru + c(32,7)_rl
   + c(32,7)_ru + c(32,42)_rl + c(32,42)_ru + c(17,41)_rl + c(17,41)_ru
   + c(12,22)_rl + c(12,22)_ru + c(33,13)_rl + c(33,13)_ru + c(40,31)_rl
   + c(40,31)_ru + c(32,35)_rl + c(32,35)_ru + c(48,52)_rl + c(48,52)_ru
   + c(48,26)_rl + c(48,26)_ru + c(36,56)_rl + c(36,56)_ru + c(52,21)_rl
   + c(52,21)_ru + c(27,19)_rl + c(27,19)_ru + c(7,51)_rl + c(7,51)_ru
   + c(30,55)_rl + c(30,55)_ru + c(15,57)_rl + c(15,57)_ru + c(50,31)_rl
   + c(50,31)_ru + c(29,50)_rl + c(29,50)_ru + c(48,10)_rl + c(48,10)_ru
   + c(48,15)_rl + c(48,15)_ru + c(32,12)_rl + c(32,12)_ru + c(45,3)_rl
   + c(45,3)_ru + c(38,4)_rl + c(38,4)_ru + c(0,1)_rl + c(0,1)_ru
   + c(48,17)_rl + c(48,17)_ru + c(9,4)_rl + c(9,4)_ru + c(39,14)_rl
   + c(39,14)_ru + c(20,50)_rl + c(20,50)_ru + c(32,16)_rl + c(32,16)_ru
   + c(27,43)_rl + c(27,43)_ru + c(48,16)_rl + c(48,16)_ru + c(46,4)_rl
   + c(46,4)_ru + c(32,0)_rl + c(32,0)_ru + c(27,49)_rl + c(27,49)_ru
   + c(42,11)_rl + c(42,11)_ru + c(27,44)_rl + c(27,44)_ru + c(2,18)_rl
   + c(2,18)_ru + c(1,4)_rl + c(1,4)_ru + c(37,31)_rl + c(37,31)_ru
   + c(24,46)_rl + c(24,46)_ru + c(32,48)_rl + c(32,48)_ru
Subject To
 R0: 29 - 44 - c(44,29)_ru <= 0
 R1: 29 - 44 + c(44,29)_rl >= 0
 R2: - 34 + 50 - c(34,50)_ru <= 10000
 R3: - 34 + 50 + c(34,50)_rl >= 0
 R4: - 23 + 37 - c(23,37)_ru <= 90
 R5: - 23 + 37 + c(23,37)_rl >= 90
 R6: 26 - 32 - c(32,26)_ru <= 34805
 R7: 26 - 32 + c(32,26)_rl >= 34805
 R8: 15 - 32 - c(32,15)_ru <= 34830
 R9: 15 - 32 + c(32,15)_rl >= 34830
 R10: - 27 + 45 - c(27,45)_ru <= 10000
 R11: - 27 + 45 + c(27,45)_rl >= 0
 R12: 4 - 51 - c(51,4)_ru <= 10000
 R13: 4 - 51 + c(51,4)_rl >= 0
 R14: 2 - 32 - c(32,2)_ru <= 34745
 R15: 2 - 32 + c(32,2)_rl >= 34745
 R16: - 10 + 53 - c(10,53)_ru <= 0
 R17: - 10 + 53 + c(10,53)_rl >= 0
 R18: 6 - 54 - c(54,6)_ru <= 0
 R19: 6 - 54 + c(54,6)_rl >= 0
 R20: 4 - 11 - c(11,4)_ru <= 10000
 R21: 4 - 11 + c(11,4)_rl >= 0
 R22: 4 - 6 - c(6,4)_ru <= 10000
 R23: 4 - 6 + c(6,4)_rl >= 0
 R24: 4 - 55 - c(55,4)_ru <= 10000
 R25: 4 - 55 + c(55,4)_rl >= 0
 R26: 4 - 22 - c(22,4)_ru <= 10000
 R27: 4 - 22 + c(22,4)_rl >= 0
 R28: 4 - 57 - c(57,4)_ru <= 10000
 R29: 4 - 57 + c(57,4)_rl >= 0
 R30: 27 - 32 - c(32,27)_ru <= 10000
 R31: 27 - 32 + c(32,27)_rl >= 0
 R32: - 32 + 40 - c(32,40)_ru <= 34740
 R33: - 32 + 40 + c(32,40)_rl >= 34740
 R34: 12 - 48 - c(48,12)_ru <= 10000
 R35: 12 - 48 + c(48,12)_rl >= 0
 R36: 8 - 28 - c(28,8)_ru <= 0
 R37: 8 - 28 + c(28,8)_rl >= 0
 R38: - 32 + 52 - c(32,52)_ru <= 34710
 R39: - 32 + 52 + c(32,52)_rl >= 34710
 R40: - 32 + 54 - c(32,54)_ru <= 34755
 R41: - 32 + 54 + c(32,54)_rl >= 34755
 R42: - 35 + 40 - c(35,40)_ru <= 60
 R43: - 35 + 40 + c(35,40)_rl >= 60
 R44: 24 - 32 - c(32,24)_ru <= 34725
 R45: 24 - 32 + c(32,24)_rl >= 34725
 R46: 4 - 53 - c(53,4)_ru <= 10000
 R47: 4 - 53 + c(53,4)_rl >= 0
 R48: 34 - 43 - c(43,34)_ru <= 0
 R49: 34 - 43 + c(43,34)_rl >= 0
 R50: 36 - 48 - c(48,36)_ru <= 10000
 R51: 36 - 48 + c(48,36)_rl >= 0
 R52: - 32 + 36 - c(32,36)_ru <= 34695
 R53: - 32 + 36 + c(32,36)_rl >= 34695
 R54: 30 - 48 - c(48,30)_ru <= 10000
 R55: 30 - 48 + c(48,30)_rl >= 0
 R56: 4 - 56 - c(56,4)_ru <= 10000
 R57: 4 - 56 + c(56,4)_rl >= 0
 R58: - 5 + 47 - c(5,47)_ru <= 0
 R59: - 5 + 47 + c(5,47)_rl >= 0
 R60: 28 - 32 - c(32,28)_ru <= 34685
 R61: 28 - 32 + c(32,28)_rl >= 34685
 R62: 10 - 32 - c(32,10)_ru <= 34840
 R63: 10 - 32 + c(32,10)_rl >= 34840
 R64: 23 - 32 - c(32,23)_ru <= 10000
 R65: 23 - 32 + c(32,23)_rl >= 0
 R66: - 4 + 31 - c(4,31)_ru <= 10000
 R67: - 4 + 31 + c(4,31)_rl >= 0
 R68: 0 - 48 - c(48,0)_ru <= 10000
 R69: 0 - 48 + c(48,0)_rl >= 0
 R70: 30 - 32 - c(32,30)_ru <= 34745
 R71: 30 - 32 + c(32,30)_rl >= 34745
 R72: 28 - 48 - c(48,28)_ru <= 10000
 R73: 28 - 48 + c(48,28)_rl >= 0
 R74: 42 - 48 - c(48,42)_ru <= 10000
 R75: 42 - 48 + c(48,42)_rl >= 0
 R76: - 26 + 38 - c(26,38)_ru <= 0
 R77: - 26 + 38 + c(26,38)_rl >= 0
 R78: - 25 + 50 - c(25,50)_ru <= 10000
 R79: - 25 + 50 + c(25,50)_rl >= 0
 R80: 4 - 47 - c(47,4)_ru <= 10000
 R81: 4 - 47 + c(47,4)_rl >= 0
 R82: - 3 + 50 - c(3,50)_ru <= 10000
 R83: - 3 + 50 + c(3,50)_rl >= 0
 R84: 7 - 48 - c(48,7)_ru <= 10000
 R85: 7 - 48 + c(48,7)_rl >= 0
 R86: - 27 + 33 - c(27,33)_ru <= 10000
 R87: - 27 + 33 + c(27,33)_rl >= 0
 R88: - 32 + 39 - c(32,39)_ru <= 34715
 R89: - 32 + 39 + c(32,39)_rl >= 34715
 R90: - 48 + 54 - c(48,54)_ru <= 10000
 R91: - 48 + 54 + c(48,54)_rl >= 0
 R92: - 19 + 20 - c(19,20)_ru <= 0
 R93: - 19 + 20 + c(19,20)_rl >= 0
 R94: 9 - 16 - c(16,9)_ru <= 0
 R95: 9 - 16 + c(16,9)_rl >= 0
 R96: 4 - 41 - c(41,4)_ru <= 10000
 R97: 4 - 41 + c(41,4)_rl >= 0
 R98: 5 - 32 - c(32,5)_ru <= 34720
 R99: 5 - 32 + c(32,5)_rl >= 34720
 R100: 4 - 8 - c(8,4)_ru <= 10000
 R101: 4 - 8 + c(8,4)_rl >= 0
 R102: 4 - 18 - c(18,4)_ru <= 10000
 R103: 4 - 18 + c(18,4)_rl >= 0
 R104: 4 - 21 - c(21,4)_ru <= 10000
 R105: 4 - 21 + c(21,4)_rl >= 0
 R106: 4 - 14 - c(14,4)_ru <= 10000
 R107: 4 - 14 + c(14,4)_rl >= 0
 R108: 17 - 32 - c(32,17)_ru <= 34695
 R109: 17 - 32 + c(32,17)_rl >= 34695
 R110: 2 - 48 - c(48,2)_ru <= 10000
 R111: 2 - 48 + c(48,2)_rl >= 0
 R112: 5 - 48 - c(48,5)_ru <= 10000
 R113: 5 - 48 + c(48,5)_rl >= 0
 R114: 25 - 49 - c(49,25)_ru <= 0
 R115: 25 - 49 + c(49,25)_rl >= 0
 R116: 24 - 48 - c(48,24)_ru <= 10000
 R117: 24 - 48 + c(48,24)_rl >= 0
 R118: - 13 + 50 - c(13,50)_ru <= 10000
 R119: - 13 + 50 + c(13,50)_rl >= 0
 R120: 23 - 32 - c(32,23)_ru <= 34440
 R121: 23 - 32 + c(32,23)_rl >= 34440
 R122: 39 - 48 - c(48,39)_ru <= 10000
 R123: 39 - 48 + c(48,39)_rl >= 0
 R124: 7 - 32 - c(32,7)_ru <= 34830
 R125: 7 - 32 + c(32,7)_rl >= 34830
 R126: - 32 + 42 - c(32,42)_ru <= 34860
 R127: - 32 + 42 + c(32,42)_rl >= 34860
 R128: - 17 + 41 - c(17,41)_ru <= 0
 R129: - 17 + 41 + c(17,41)_rl >= 0
 R130: - 12 + 22 - c(12,22)_ru <= 0
 R131: - 12 + 22 + c(12,22)_rl >= 0
 R132: 13 - 33 - c(33,13)_ru <= 0
 R133: 13 - 33 + c(33,13)_rl >= 0
 R134: 31 - 40 - c(40,31)_ru <= 10000
 R135: 31 - 40 + c(40,31)_rl >= 0
 R136: - 32 + 35 - c(32,35)_ru <= 10000
 R137: - 32 + 35 + c(32,35)_rl >= 0
 R138: - 48 + 52 - c(48,52)_ru <= 10000
 R139: - 48 + 52 + c(48,52)_rl >= 0
 R140: 26 - 48 - c(48,26)_ru <= 10000
 R141: 26 - 48 + c(48,26)_rl >= 0
 R142: - 36 + 56 - c(36,56)_ru <= 0
 R143: - 36 + 56 + c(36,56)_rl >= 0
 R144: 21 - 52 - c(52,21)_ru <= 0
 R145: 21 - 52 + c(52,21)_rl >= 0
 R146: 19 - 27 - c(27,19)_ru <= 10000
 R147: 19 - 27 + c(27,19)_rl >= 0
 R148: - 7 + 51 - c(7,51)_ru <= 0
 R149: - 7 + 51 + c(7,51)_rl >= 0
 R150: - 30 + 55 - c(30,55)_ru <= 0
 R151: - 30 + 55 + c(30,55)_rl >= 0
 R152: - 15 + 57 - c(15,57)_ru <= 0
 R153: - 15 + 57 + c(15,57)_rl >= 0
 R154: 31 - 50 - c(50,31)_ru <= 10000
 R155: 31 - 50 + c(50,31)_rl >= 0
 R156: - 29 + 50 - c(29,50)_ru <= 10000
 R157: - 29 + 50 + c(29,50)_rl >= 0
 R158: 10 - 48 - c(48,10)_ru <= 10000
 R159: 10 - 48 + c(48,10)_rl >= 0
 R160: 15 - 48 - c(48,15)_ru <= 10000
 R161: 15 - 48 + c(48,15)_rl >= 0
 R162: 12 - 32 - c(32,12)_ru <= 34690
 R163: 12 - 32 + c(32,12)_rl >= 34690
 R164: 3 - 45 - c(45,3)_ru <= 0
 R165: 3 - 45 + c(45,3)_rl >= 0
 R166: 4 - 38 - c(38,4)_ru <= 10000
 R167: 4 - 38 + c(38,4)_rl >= 0
 R168: - 0 + 1 - c(0,1)_ru <= 0
 R169: - 0 + 1 + c(0,1)_rl >= 0
 R170: 17 - 48 - c(48,17)_ru <= 10000
 R171: 17 - 48 + c(48,17)_rl >= 0
 R172: 4 - 9 - c(9,4)_ru <= 10000
 R173: 4 - 9 + c(9,4)_rl >= 0
 R174: 14 - 39 - c(39,14)_ru <= 0
 R175: 14 - 39 + c(39,14)_rl >= 0
 R176: - 20 + 50 - c(20,50)_ru <= 10000
 R177: - 20 + 50 + c(20,50)_rl >= 0
 R178: 16 - 32 - c(32,16)_ru <= 34815
 R179: 16 - 32 + c(32,16)_rl >= 34815
 R180: - 27 + 43 - c(27,43)_ru <= 10000
 R181: - 27 + 43 + c(27,43)_rl >= 0
 R182: 16 - 48 - c(48,16)_ru <= 10000
 R183: 16 - 48 + c(48,16)_rl >= 0
 R184: 4 - 46 - c(46,4)_ru <= 10000
 R185: 4 - 46 + c(46,4)_rl >= 0
 R186: 0 - 32 - c(32,0)_ru <= 34815
 R187: 0 - 32 + c(32,0)_rl >= 34815
 R188: - 27 + 49 - c(27,49)_ru <= 10000
 R189: - 27 + 49 + c(27,49)_rl >= 0
 R190: 11 - 42 - c(42,11)_ru <= 0
 R191: 11 - 42 + c(42,11)_rl >= 0
 R192: - 27 + 44 - c(27,44)_ru <= 10000
 R193: - 27 + 44 + c(27,44)_rl >= 0
 R194: - 2 + 18 - c(2,18)_ru <= 0
 R195: - 2 + 18 + c(2,18)_rl >= 0
 R196: - 1 + 4 - c(1,4)_ru <= 10000
 R197: - 1 + 4 + c(1,4)_rl >= 0
 R198: 31 - 37 - c(37,31)_ru <= 10000
 R199: 31 - 37 + c(37,31)_rl >= 0
 R200: - 24 + 46 - c(24,46)_ru <= 0
 R201: - 24 + 46 + c(24,46)_rl >= 0
 R202: - 32 + 48 - c(32,48)_ru <= 10000
 R203: - 32 + 48 + c(32,48)_rl >= 0
 risk: - Risk = 0
 risk_bound: Risk <= 0.2
Bounds
End
